h 24 -26 -11 -11 -20 -27 -10 9 -16 -14 -13 -25 16 -25 -25 -6 -14 -20 -26 -13 -11 -27 -23 -18 20 -7 -24 -14 -3 -14 -12 -26 -11 26 -9 -16 -11 2 -16 -17 11 -18 15 -23 20 -10 -17 -17 -15 14 -15 -5 -22 -4 -13 0
